outputs/case_109.model.txt
other_transaction_limit_same_related_enterprise = 0
other_transaction_limit_same_person = 100000000
net_worth_ratio = 3/2
person_type = 1
is_self = True
capital_level_2_measures_completed = False
net_worth = 1000000000
board_meeting_attendance_ratio = 6667/10000
other_transaction_condition = False
loan_limit_same_related_enterprise = 0
board_meeting_approval_ratio = 3/4
loan_amount_same_related_enterprise = 0
capital_level_4_measures_completed = False
other_transaction_amount_same_related_enterprise = 0
loan_limit_same_person = 4000000000
other_transaction_limit_same_related_person = 0
supervision_payment_limit = 3200000
loan_amount_same_related_person = 0
capital_adequacy_ratio = 140
other_transaction_amount_same_related_person = 0
payment_limit = 3200000
blood_relation_degree = 3
is_spouse = False
other_transaction_condition_standard = False
company_law_related_enterprise = False
other_transaction_amount_same_person = 100000000
is_responsible_person_of_business = False
capital_level_3_measures_completed = True
loan_amount_same_person = 4000000000
loan_limit_same_related_person = 0
internal_control_and_handling_compliance = True
internal_handling_established = True
contract_or_major_commitment_exceeded = False
internal_handling_system_established = True
supervision_restriction_compliance = True
internal_control_and_audit_established = True
capital_level_2_measures_executed = False
capital_level = 3
same_person = True
internal_control_executed = True
loan_and_other_transaction_limit_compliance = True
same_related_enterprise = False
internal_handling_system_executed = True
penalty = False
board_member_conflict_of_interest_vote = False
internal_handling_executed = True
internal_control_established = True
other_major_financial_impact_violated = False
internal_control_and_audit_executed = True
capital_level_4_measures_executed = False
same_related_person = True
other_transaction_condition_compliance = True
capital_level_3_measures_executed = True